\ENCODING=ISO-8859-1
\Problem name: ilog.cplex

Minimize
 obj1: 95513 x1 + 91347 x2 + 94063 x3 + 92492 x4 + 101985 x5 + 98454 x6
       + 98226 x7 + 99497 x8 + 104843 x9 + 96788 x10 + 93419 x11 + 108048 x12
       + 106770 x13 + 96981 x14 + 92668 x15 + 92594 x16 + 93232 x17
       + 109214 x18 + 97788 x19 + 102781 x20 + 108371 x21 + 95722 x22
       + 100969 x23 + 91428 x24 + 107752 x25 + 92592 x26 + 96822 x27
       + 105983 x28 + 97750 x29 + 92959 x30 + 99910 x31 + 91180 x32
       + 103265 x33 + 102574 x34 + 100019 x35 + 107356 x36 + 92970 x37
       + 98333 x38 + 90224 x39 + 96228 x40 + 94442 x41 + 100478 x42 + 91306 x43
       + 103955 x44 + 90288 x45 + 90011 x46 + 90100 x47 + 99893 x48
       + 100790 x49 + 104287 x50 + 105788 x51 + 90166 x52 + 103305 x53
       + 106602 x54 + 101758 x55 + 105279 x56 + 106781 x57 + 91605 x58
       + 95711 x59 + 105670 x60 + 102193 x61 + 102823 x62 + 95695 x63
       + 100574 x64 + 91318 x65 + 97399 x66 + 108792 x67 + 106539 x68
       + 95461 x69 + 102744 x70 + 96495 x71 + 100732 x72 + 94546 x73
       + 109530 x74 + 91389 x75 + 91049 x76 + 94351 x77 + 108517 x78
       + 102018 x79 + 100519 x80 + 95910 x81 + 109384 x82 + 99840 x83
       + 93781 x84 + 96036 x85 + 90411 x86 + 109875 x87 + 109435 x88
       + 93366 x89 + 94108 x90 + 94928 x91 + 103581 x92 + 90460 x93
       + 105787 x94 + 92210 x95 + 97126 x96 + 109221 x97 + 109605 x98
       + 90740 x99 + 92228 x100 + 101731 x101 + 106852 x102 + 93037 x103
       + 95525 x104 + 99508 x105 + 90627 x106 + 94268 x107 + 93270 x108
       + 109356 x109 + 99614 x110 + 104304 x111 + 107099 x112 + 105394 x113
       + 98826 x114 + 98245 x115 + 93382 x116 + 97894 x117 + 98282 x118
       + 90929 x119 + 90401 x120 + 105047 x121 + 102387 x122 + 94593 x123
       + 108995 x124 + 103376 x125 + 108342 x126 + 95830 x127 + 109760 x128
       + 107329 x129 + 109608 x130 + 107176 x131 + 109253 x132 + 92072 x133
       + 93469 x134 + 102403 x135 + 93461 x136 + 102537 x137 + 105314 x138
       + 94009 x139 + 93200 x140 + 106537 x141 + 106516 x142 + 96395 x143
       + 93188 x144 + 90059 x145 + 97663 x146 + 98885 x147 + 104184 x148
       + 98806 x149 + 94338 x150 + 108826 x151 + 98312 x152 + 107381 x153
       + 108937 x154 + 107788 x155 + 90656 x156 + 90815 x157 + 101098 x158
       + 103377 x159 + 95758 x160 + 105512 x161 + 92124 x162 + 93204 x163
       + 109945 x164 + 98827 x165 + 105757 x166 + 93211 x167 + 100117 x168
       + 92835 x169 + 102552 x170 + 106725 x171 + 97129 x172 + 97336 x173
       + 101042 x174 + 102836 x175 + 90381 x176 + 92484 x177 + 107224 x178
       + 97751 x179 + 96698 x180 + 97677 x181 + 103193 x182 + 103841 x183
       + 93452 x184 + 107237 x185 + 107953 x186 + 92893 x187 + 98427 x188
       + 97956 x189 + 91245 x190 + 92397 x191 + 107049 x192 + 98798 x193
       + 94718 x194 + 96719 x195 + 101382 x196 + 98798 x197 + 93835 x198
       + 108594 x199 + 104680 x200 + 90329 x201 + 94592 x202 + 101560 x203
       + 101461 x204 + 104603 x205 + 94616 x206 + 97472 x207 + 96289 x208
       + 109002 x209 + 107820 x210 + 100579 x211 + 108483 x212 + 109756 x213
       + 106053 x214 + 92705 x215 + 94609 x216 + 99676 x217 + 99029 x218
       + 108175 x219 + 103452 x220 + 90596 x221 + 98011 x222 + 100010 x223
       + 97175 x224 + 103509 x225 + 90052 x226 + 95972 x227 + 91481 x228
       + 107801 x229 + 99186 x230 + 102697 x231 + 90877 x232 + 101094 x233
       + 103026 x234 + 91515 x235 + 94996 x236 + 96788 x237 + 105880 x238
       + 100505 x239 + 102417 x240 + 97688 x241 + 102814 x242 + 93908 x243
       + 99555 x244 + 101010 x245 + 103021 x246 + 92231 x247 + 93903 x248
       + 102550 x249 + 95381 x250 + 94305 x251 + 95345 x252 + 105877 x253
       + 96874 x254 + 99727 x255 + 96395 x256 + 98902 x257 + 90893 x258
       + 101556 x259 + 90805 x260 + 109103 x261 + 109728 x262 + 95940 x263
       + 99239 x264 + 101758 x265 + 100093 x266 + 98368 x267 + 106274 x268
       + 91442 x269 + 106497 x270 + 96950 x271 + 105413 x272 + 103384 x273
       + 100834 x274 + 108118 x275 + 95936 x276 + 91151 x277 + 99240 x278
       + 96568 x279 + 107908 x280 + 93707 x281 + 99793 x282 + 101420 x283
       + 100119 x284 + 92920 x285 + 93453 x286 + 91378 x287 + 109840 x288
       + 101172 x289 + 94987 x290 + 93105 x291 + 92928 x292 + 107988 x293
       + 90662 x294 + 99070 x295 + 98228 x296 + 104450 x297 + 105148 x298
       + 103800 x299 + 91088 x300 + 97458 x301 + 94590 x302 + 103491 x303
       + 96187 x304 + 102205 x305 + 100530 x306 + 107399 x307 + 100061 x308
       + 103136 x309 + 101439 x310 + 107837 x311 + 101014 x312 + 95646 x313
       + 92831 x314 + 99328 x315 + 95933 x316 + 102042 x317 + 103161 x318
       + 104027 x319 + 92953 x320 + 104235 x321 + 108074 x322 + 96380 x323
       + 92799 x324 + 108880 x325 + 102675 x326 + 104601 x327 + 101356 x328
       + 109978 x329 + 97481 x330 + 105325 x331 + 94609 x332 + 95523 x333
       + 99856 x334 + 109684 x335 + 106018 x336 + 92018 x337 + 109418 x338
       + 96575 x339 + 95956 x340 + 93476 x341 + 93310 x342 + 102028 x343
       + 92996 x344 + 100017 x345 + 95212 x346 + 102357 x347 + 107650 x348
       + 95228 x349 + 90556 x350 + 109671 x351 + 106348 x352 + 99360 x353
       + 105235 x354 + 90455 x355 + 102676 x356 + 90507 x357 + 94061 x358
       + 92616 x359 + 109233 x360 + 106890 x361 + 96200 x362 + 106697 x363
       + 97355 x364 + 104436 x365 + 107562 x366 + 102782 x367 + 99633 x368
       + 96676 x369 + 91377 x370 + 106185 x371 + 102517 x372 + 90857 x373
       + 107963 x374 + 100393 x375 + 104857 x376 + 105078 x377 + 98598 x378
       + 101140 x379 + 102103 x380 + 92425 x381 + 102564 x382 + 99754 x383
       + 100938 x384 + 95046 x385 + 106714 x386 + 98754 x387 + 109717 x388
       + 108846 x389 + 92902 x390 + 98177 x391 + 106395 x392 + 97741 x393
       + 100172 x394 + 97228 x395 + 97491 x396 + 95372 x397 + 95843 x398
       + 92577 x399 + 109182 x400 + 94732 x401 + 102001 x402 + 95725 x403
       + 100065 x404 + 101275 x405 + 97007 x406 + 103818 x407 + 101055 x408
       + 93312 x409 + 93440 x410 + 95755 x411 + 103856 x412 + 100352 x413
       + 107414 x414 + 94854 x415 + 102996 x416 + 101745 x417 + 94922 x418
       + 101878 x419 + 90845 x420 + 103013 x421 + 107373 x422 + 90209 x423
       + 106936 x424 + 94920 x425 + 93957 x426 + 97304 x427 + 92142 x428
       + 98999 x429 + 107181 x430 + 94526 x431 + 97809 x432 + 91422 x433
       + 93080 x434 + 90907 x435 + 102933 x436 + 100866 x437 + 93431 x438
       + 105506 x439 + 106075 x440 + 95411 x441 + 93695 x442 + 107692 x443
       + 102967 x444 + 108551 x445 + 97492 x446 + 95050 x447 + 95585 x448
       + 105003 x449 + 96072 x450 + 109551 x451 + 94150 x452 + 108448 x453
       + 94115 x454 + 105596 x455 + 99433 x456 + 95587 x457 + 90460 x458
       + 90826 x459 + 102245 x460 + 100744 x461 + 99714 x462 + 100324 x463
       + 107350 x464 + 105357 x465 + 95366 x466 + 101503 x467 + 106723 x468
       + 107875 x469 + 91433 x470 + 99954 x471 + 101056 x472 + 95420 x473
       + 102178 x474 + 106990 x475 + 103289 x476 + 103421 x477 + 105511 x478
       + 101252 x479 + 99982 x480 + 100911 x481 + 109712 x482 + 90053 x483
       + 92898 x484 + 100304 x485 + 109992 x486 + 90052 x487 + 95380 x488
       + 102195 x489 + 103958 x490 + 101431 x491 + 95949 x492 + 108095 x493
       + 93157 x494 + 104873 x495 + 104985 x496 + 106998 x497 + 91672 x498
       + 106491 x499 + 294461 x500 + 40439 x501 + 36777 x502 + 41763 x503
       + 36853 x504 + 40072 x505 + 39588 x506 + 38702 x507 + 41977 x508
       + 42545 x509 + 39666 x510 + 42019 x511 + 42377 x512 + 39379 x513
       + 37666 x514 + 40559 x515 + 42351 x516 + 41142 x517 + 43844 x518
       + 37564 x519 + 40046 x520 + 42684 x521 + 37024 x522 + 43304 x523
       + 40144 x524 + 41463 x525 + 41870 x526 + 42784 x527 + 42641 x528
       + 36054 x529 + 38071 x530 + 38769 x531 + 37450 x532 + 36450 x533
       + 43924 x534 + 36215 x535 + 41770 x536 + 42892 x537 + 40443 x538
       + 40742 x539 + 43200 x540 + 39971 x541 + 36491 x542 + 39127 x543
       + 36322 x544 + 43384 x545 + 40577 x546 + 41847 x547 + 43985 x548
       + 40217 x549 + 24856 x550
Subject To
 c1:   - x19 - x22 + x28 - x30 - x38 + x47  = 0
 c2:   - x69 - x72 + x78 - x80 - x88 + x97  = 0
 c3:   - x119 - x122 + x128 - x130 - x138 + x147  = 0
 c4:   - x169 - x172 + x178 - x180 - x188 + x197  = 0
 c5:   - x219 - x222 + x228 - x230 - x238 + x247  = -1
 c6:   - x269 - x272 + x278 - x280 - x288 + x297  = 0
 c7:   - x319 - x322 + x328 - x330 - x338 + x347  = 1
 c8:   - x369 - x372 + x378 - x380 - x388 + x397  = 1
 c9:   - x419 - x422 + x428 - x430 - x438 + x447  = 0
 c10:  - x469 - x472 + x478 - x480 - x488 + x497  = 0
 c11:  x6 + x11 - x18 - x21 - x26 - x45 + x49  = 0
 c12:  x56 + x61 - x68 - x71 - x76 - x95 + x99  = 0
 c13:  x106 + x111 - x118 - x121 - x126 - x145 + x149  = 0
 c14:  x156 + x161 - x168 - x171 - x176 - x195 + x199  = 0
 c15:  x206 + x211 - x218 - x221 - x226 - x245 + x249  = 0
 c16:  x256 + x261 - x268 - x271 - x276 - x295 + x299  = 0
 c17:  x306 + x311 - x318 - x321 - x326 - x345 + x349  = 0
 c18:  x356 + x361 - x368 - x371 - x376 - x395 + x399  = 0
 c19:  x406 + x411 - x418 - x421 - x426 - x445 + x449  = 1
 c20:  x456 + x461 - x468 - x471 - x476 - x495 + x499  = 0
 c21:  - x3 + x20 - x24 - x34 + x39 + x43  = 0
 c22:  - x53 + x70 - x74 - x84 + x89 + x93  = 0
 c23:  - x103 + x120 - x124 - x134 + x139 + x143  = 0
 c24:  - x153 + x170 - x174 - x184 + x189 + x193  = 0
 c25:  - x203 + x220 - x224 - x234 + x239 + x243  = 0
 c26:  - x253 + x270 - x274 - x284 + x289 + x293  = 1
 c27:  - x303 + x320 - x324 - x334 + x339 + x343  = 0
 c28:  - x353 + x370 - x374 - x384 + x389 + x393  = 0
 c29:  - x403 + x420 - x424 - x434 + x439 + x443  = 0
 c30:  - x453 + x470 - x474 - x484 + x489 + x493  = -1
 c31:  x1 - x6 + x15 + x16 - x17 + x24 + x36 + x41 - x46 - x50  = 0
 c32:  x51 - x56 + x65 + x66 - x67 + x74 + x86 + x91 - x96 - x100  = 0
 c33:  x101 - x106 + x115 + x116 - x117 + x124 + x136 + x141 - x146 - x150  = 0
 c34:  x151 - x156 + x165 + x166 - x167 + x174 + x186 + x191 - x196 - x200  = 0
 c35:  x201 - x206 + x215 + x216 - x217 + x224 + x236 + x241 - x246 - x250  = 0
 c36:  x251 - x256 + x265 + x266 - x267 + x274 + x286 + x291 - x296 - x300  = 0
 c37:  x301 - x306 + x315 + x316 - x317 + x324 + x336 + x341 - x346 - x350  = 0
 c38:  x351 - x356 + x365 + x366 - x367 + x374 + x386 + x391 - x396 - x400  = 0
 c39:  x401 - x406 + x415 + x416 - x417 + x424 + x436 + x441 - x446 - x450  = 0
 c40:  x451 - x456 + x465 + x466 - x467 + x474 + x486 + x491 - x496 - x500  = 0
 c41:  x2 + x7 + x9  = 0
 c42:  x52 + x57 + x59  = 0
 c43:  x102 + x107 + x109  = 0
 c44:  x152 + x157 + x159  = 0
 c45:  x202 + x207 + x209  = 0
 c46:  x252 + x257 + x259  = 0
 c47:  x302 + x307 + x309  = 0
 c48:  x352 + x357 + x359  = 0
 c49:  x402 + x407 + x409  = 0
 c50:  x452 + x457 + x459  = 0
 c51:  x4 + x18 - x25 - x33 - x40  = 0
 c52:  x54 + x68 - x75 - x83 - x90  = 0
 c53:  x104 + x118 - x125 - x133 - x140  = 0
 c54:  x154 + x168 - x175 - x183 - x190  = 0
 c55:  x204 + x218 - x225 - x233 - x240  = 0
 c56:  x254 + x268 - x275 - x283 - x290  = 0
 c57:  x304 + x318 - x325 - x333 - x340  = 0
 c58:  x354 + x368 - x375 - x383 - x390  = 0
 c59:  x404 + x418 - x425 - x433 - x440  = 0
 c60:  x454 + x468 - x475 - x483 - x490  = 0
 c61:  - x10 + x13 - x14 + x19 - x20 + x31  = 0
 c62:  - x60 + x63 - x64 + x69 - x70 + x81  = 0
 c63:  - x110 + x113 - x114 + x119 - x120 + x131  = 0
 c64:  - x160 + x163 - x164 + x169 - x170 + x181  = 0
 c65:  - x210 + x213 - x214 + x219 - x220 + x231  = 1
 c66:  - x260 + x263 - x264 + x269 - x270 + x281  = 0
 c67:  - x310 + x313 - x314 + x319 - x320 + x331  = 0
 c68:  - x360 + x363 - x364 + x369 - x370 + x381  = 0
 c69:  - x410 + x413 - x414 + x419 - x420 + x431  = 0
 c70:  - x460 + x463 - x464 + x469 - x470 + x481  = 0
 c71:  - x1 + x5 - x7 - x12 - x13 + x14 + x17 - x28 - x39 + x40  = 0
 c72:  - x51 + x55 - x57 - x62 - x63 + x64 + x67 - x78 - x89 + x90  = 0
 c73:  - x101 + x105 - x107 - x112 - x113 + x114 + x117 - x128 - x139 + x140
        = 0
 c74:  - x151 + x155 - x157 - x162 - x163 + x164 + x167 - x178 - x189 + x190
        = 0
 c75:  - x201 + x205 - x207 - x212 - x213 + x214 + x217 - x228 - x239 + x240
        = 0
 c76:  - x251 + x255 - x257 - x262 - x263 + x264 + x267 - x278 - x289 + x290
        = 0
 c77:  - x301 + x305 - x307 - x312 - x313 + x314 + x317 - x328 - x339 + x340
        = 0
 c78:  - x351 + x355 - x357 - x362 - x363 + x364 + x367 - x378 - x389 + x390
        = 0
 c79:  - x401 + x405 - x407 - x412 - x413 + x414 + x417 - x428 - x439 + x440
        = 0
 c80:  - x451 + x455 - x457 - x462 - x463 + x464 + x467 - x478 - x489 + x490
        = 0
 c81:  - x16 - x29 + x34 - x35 + x38 - x47 - x48  = -1
 c82:  - x66 - x79 + x84 - x85 + x88 - x97 - x98  = 0
 c83:  - x116 - x129 + x134 - x135 + x138 - x147 - x148  = 0
 c84:  - x166 - x179 + x184 - x185 + x188 - x197 - x198  = -1
 c85:  - x216 - x229 + x234 - x235 + x238 - x247 - x248  = 0
 c86:  - x266 - x279 + x284 - x285 + x288 - x297 - x298  = 0
 c87:  - x316 - x329 + x334 - x335 + x338 - x347 - x348  = -1
 c88:  - x366 - x379 + x384 - x385 + x388 - x397 - x398  = -1
 c89:  - x416 - x429 + x434 - x435 + x438 - x447 - x448  = 0
 c90:  - x466 - x479 + x484 - x485 + x488 - x497 - x498  = 0
 c91:  - x5 + x26 - x32 + x35 + x37 - x41 + x42 - x43  = 1
 c92:  - x55 + x76 - x82 + x85 + x87 - x91 + x92 - x93  = 0
 c93:  - x105 + x126 - x132 + x135 + x137 - x141 + x142 - x143  = 0
 c94:  - x155 + x176 - x182 + x185 + x187 - x191 + x192 - x193  = 0
 c95:  - x205 + x226 - x232 + x235 + x237 - x241 + x242 - x243  = 0
 c96:  - x255 + x276 - x282 + x285 + x287 - x291 + x292 - x293  = 0
 c97:  - x305 + x326 - x332 + x335 + x337 - x341 + x342 - x343  = 0
 c98:  - x355 + x376 - x382 + x385 + x387 - x391 + x392 - x393  = 0
 c99:  - x405 + x426 - x432 + x435 + x437 - x441 + x442 - x443  = -1
 c100: - x455 + x476 - x482 + x485 + x487 - x491 + x492 - x493  = 0
 c101: - x15 + x21 - x23 + x25 - x27 + x46  = 0
 c102: - x65 + x71 - x73 + x75 - x77 + x96  = 0
 c103: - x115 + x121 - x123 + x125 - x127 + x146  = 0
 c104: - x165 + x171 - x173 + x175 - x177 + x196  = 0
 c105: - x215 + x221 - x223 + x225 - x227 + x246  = 0
 c106: - x265 + x271 - x273 + x275 - x277 + x296  = 0
 c107: - x315 + x321 - x323 + x325 - x327 + x346  = 0
 c108: - x365 + x371 - x373 + x375 - x377 + x396  = 0
 c109: - x415 + x421 - x423 + x425 - x427 + x446  = 0
 c110: - x465 + x471 - x473 + x475 - x477 + x496  = 1
 c111: x3 - x4 - x8 + x22 + x27 - x44 + x48 - x49  = 0
 c112: x53 - x54 - x58 + x72 + x77 - x94 + x98 - x99  = 0
 c113: x103 - x104 - x108 + x122 + x127 - x144 + x148 - x149  = 0
 c114: x153 - x154 - x158 + x172 + x177 - x194 + x198 - x199  = 1
 c115: x203 - x204 - x208 + x222 + x227 - x244 + x248 - x249  = 0
 c116: x253 - x254 - x258 + x272 + x277 - x294 + x298 - x299  = -1
 c117: x303 - x304 - x308 + x322 + x327 - x344 + x348 - x349  = 0
 c118: x353 - x354 - x358 + x372 + x377 - x394 + x398 - x399  = 0
 c119: x403 - x404 - x408 + x422 + x427 - x444 + x448 - x449  = 0
 c120: x453 - x454 - x458 + x472 + x477 - x494 + x498 - x499  = 0
 c121: - x2 + x8 + x10 + x29 + x30 + x33 - x36  = 0
 c122: - x52 + x58 + x60 + x79 + x80 + x83 - x86  = 0
 c123: - x102 + x108 + x110 + x129 + x130 + x133 - x136  = 0
 c124: - x152 + x158 + x160 + x179 + x180 + x183 - x186  = 0
 c125: - x202 + x208 + x210 + x229 + x230 + x233 - x236  = 0
 c126: - x252 + x258 + x260 + x279 + x280 + x283 - x286  = 0
 c127: - x302 + x308 + x310 + x329 + x330 + x333 - x336  = 0
 c128: - x352 + x358 + x360 + x379 + x380 + x383 - x386  = 0
 c129: - x402 + x408 + x410 + x429 + x430 + x433 - x436  = 0
 c130: - x452 + x458 + x460 + x479 + x480 + x483 - x486  = 0
 c131: - x31 - x42 + x45 + x50  = 0
 c132: - x81 - x92 + x95 + x100  = -1
 c133: - x131 - x142 + x145 + x150  = -1
 c134: - x181 - x192 + x195 + x200  = 0
 c135: - x231 - x242 + x245 + x250  = 0
 c136: - x281 - x292 + x295 + x300  = 0
 c137: - x331 - x342 + x345 + x350  = 0
 c138: - x381 - x392 + x395 + x400  = 0
 c139: - x431 - x442 + x445 + x450  = 0
 c140: - x481 - x492 + x495 + x500  = 0
 c141: - x9 - x11 + x12 + x23 + x32 - x37 + x44  = 0
 c142: - x59 - x61 + x62 + x73 + x82 - x87 + x94  = 1
 c143: - x109 - x111 + x112 + x123 + x132 - x137 + x144  = 1
 c144: - x159 - x161 + x162 + x173 + x182 - x187 + x194  = 0
 c145: - x209 - x211 + x212 + x223 + x232 - x237 + x244  = 0
 c146: - x259 - x261 + x262 + x273 + x282 - x287 + x294  = 0
 c147: - x309 - x311 + x312 + x323 + x332 - x337 + x344  = 0
 c148: - x359 - x361 + x362 + x373 + x382 - x387 + x394  = 0
 c149: - x409 - x411 + x412 + x423 + x432 - x437 + x444  = 0
 c150: - x459 - x461 + x462 + x473 + x482 - x487 + x494  = 0
 c151: 4 x1 + 4 x51 + 4 x101 + 4 x151 + 4 x201 + 4 x251 + 4 x301 + 4 x351
       + 4 x401 + 4 x451 - 5 x501 <= 0
 c152: 4 x2 + 4 x52 + 4 x102 + 4 x152 + 4 x202 + 4 x252 + 4 x302 + 4 x352
       + 4 x402 + 4 x452 - 5 x502 <= 0
 c153: 4 x3 + 4 x53 + 4 x103 + 4 x153 + 4 x203 + 4 x253 + 4 x303 + 4 x353
       + 4 x403 + 4 x453 - 5 x503 <= 0
 c154: 4 x4 + 4 x54 + 4 x104 + 4 x154 + 4 x204 + 4 x254 + 4 x304 + 4 x354
       + 4 x404 + 4 x454 - 5 x504 <= 0
 c155: 4 x5 + 4 x55 + 4 x105 + 4 x155 + 4 x205 + 4 x255 + 4 x305 + 4 x355
       + 4 x405 + 4 x455 - 5 x505 <= 0
 c156: 4 x6 + 4 x56 + 4 x106 + 4 x156 + 4 x206 + 4 x256 + 4 x306 + 4 x356
       + 4 x406 + 4 x456 - 5 x506 <= 0
 c157: 4 x7 + 4 x57 + 4 x107 + 4 x157 + 4 x207 + 4 x257 + 4 x307 + 4 x357
       + 4 x407 + 4 x457 - 5 x507 <= 0
 c158: 4 x8 + 4 x58 + 4 x108 + 4 x158 + 4 x208 + 4 x258 + 4 x308 + 4 x358
       + 4 x408 + 4 x458 - 5 x508 <= 0
 c159: 4 x9 + 4 x59 + 4 x109 + 4 x159 + 4 x209 + 4 x259 + 4 x309 + 4 x359
       + 4 x409 + 4 x459 - 5 x509 <= 0
 c160: 4 x10 + 4 x60 + 4 x110 + 4 x160 + 4 x210 + 4 x260 + 4 x310 + 4 x360
       + 4 x410 + 4 x460 - 5 x510 <= 0
 c161: 4 x11 + 4 x61 + 4 x111 + 4 x161 + 4 x211 + 4 x261 + 4 x311 + 4 x361
       + 4 x411 + 4 x461 - 5 x511 <= 0
 c162: 4 x12 + 4 x62 + 4 x112 + 4 x162 + 4 x212 + 4 x262 + 4 x312 + 4 x362
       + 4 x412 + 4 x462 - 5 x512 <= 0
 c163: 4 x13 + 4 x63 + 4 x113 + 4 x163 + 4 x213 + 4 x263 + 4 x313 + 4 x363
       + 4 x413 + 4 x463 - 5 x513 <= 0
 c164: 4 x14 + 4 x64 + 4 x114 + 4 x164 + 4 x214 + 4 x264 + 4 x314 + 4 x364
       + 4 x414 + 4 x464 - 5 x514 <= 0
 c165: 4 x15 + 4 x65 + 4 x115 + 4 x165 + 4 x215 + 4 x265 + 4 x315 + 4 x365
       + 4 x415 + 4 x465 - 5 x515 <= 0
 c166: 4 x16 + 4 x66 + 4 x116 + 4 x166 + 4 x216 + 4 x266 + 4 x316 + 4 x366
       + 4 x416 + 4 x466 - 5 x516 <= 0
 c167: 4 x17 + 4 x67 + 4 x117 + 4 x167 + 4 x217 + 4 x267 + 4 x317 + 4 x367
       + 4 x417 + 4 x467 - 5 x517 <= 0
 c168: 4 x18 + 4 x68 + 4 x118 + 4 x168 + 4 x218 + 4 x268 + 4 x318 + 4 x368
       + 4 x418 + 4 x468 - 5 x518 <= 0
 c169: 4 x19 + 4 x69 + 4 x119 + 4 x169 + 4 x219 + 4 x269 + 4 x319 + 4 x369
       + 4 x419 + 4 x469 - 5 x519 <= 0
 c170: 4 x20 + 4 x70 + 4 x120 + 4 x170 + 4 x220 + 4 x270 + 4 x320 + 4 x370
       + 4 x420 + 4 x470 - 5 x520 <= 0
 c171: 4 x21 + 4 x71 + 4 x121 + 4 x171 + 4 x221 + 4 x271 + 4 x321 + 4 x371
       + 4 x421 + 4 x471 - 5 x521 <= 0
 c172: 4 x22 + 4 x72 + 4 x122 + 4 x172 + 4 x222 + 4 x272 + 4 x322 + 4 x372
       + 4 x422 + 4 x472 - 5 x522 <= 0
 c173: 4 x23 + 4 x73 + 4 x123 + 4 x173 + 4 x223 + 4 x273 + 4 x323 + 4 x373
       + 4 x423 + 4 x473 - 5 x523 <= 0
 c174: 4 x24 + 4 x74 + 4 x124 + 4 x174 + 4 x224 + 4 x274 + 4 x324 + 4 x374
       + 4 x424 + 4 x474 - 5 x524 <= 0
 c175: 4 x25 + 4 x75 + 4 x125 + 4 x175 + 4 x225 + 4 x275 + 4 x325 + 4 x375
       + 4 x425 + 4 x475 - 5 x525 <= 0
 c176: 4 x26 + 4 x76 + 4 x126 + 4 x176 + 4 x226 + 4 x276 + 4 x326 + 4 x376
       + 4 x426 + 4 x476 - 5 x526 <= 0
 c177: 4 x27 + 4 x77 + 4 x127 + 4 x177 + 4 x227 + 4 x277 + 4 x327 + 4 x377
       + 4 x427 + 4 x477 - 5 x527 <= 0
 c178: 4 x28 + 4 x78 + 4 x128 + 4 x178 + 4 x228 + 4 x278 + 4 x328 + 4 x378
       + 4 x428 + 4 x478 - 5 x528 <= 0
 c179: 4 x29 + 4 x79 + 4 x129 + 4 x179 + 4 x229 + 4 x279 + 4 x329 + 4 x379
       + 4 x429 + 4 x479 - 5 x529 <= 0
 c180: 4 x30 + 4 x80 + 4 x130 + 4 x180 + 4 x230 + 4 x280 + 4 x330 + 4 x380
       + 4 x430 + 4 x480 - 5 x530 <= 0
 c181: 4 x31 + 4 x81 + 4 x131 + 4 x181 + 4 x231 + 4 x281 + 4 x331 + 4 x381
       + 4 x431 + 4 x481 - 5 x531 <= 0
 c182: 4 x32 + 4 x82 + 4 x132 + 4 x182 + 4 x232 + 4 x282 + 4 x332 + 4 x382
       + 4 x432 + 4 x482 - 5 x532 <= 0
 c183: 4 x33 + 4 x83 + 4 x133 + 4 x183 + 4 x233 + 4 x283 + 4 x333 + 4 x383
       + 4 x433 + 4 x483 - 5 x533 <= 0
 c184: 4 x34 + 4 x84 + 4 x134 + 4 x184 + 4 x234 + 4 x284 + 4 x334 + 4 x384
       + 4 x434 + 4 x484 - 5 x534 <= 0
 c185: 4 x35 + 4 x85 + 4 x135 + 4 x185 + 4 x235 + 4 x285 + 4 x335 + 4 x385
       + 4 x435 + 4 x485 - 5 x535 <= 0
 c186: 4 x36 + 4 x86 + 4 x136 + 4 x186 + 4 x236 + 4 x286 + 4 x336 + 4 x386
       + 4 x436 + 4 x486 - 5 x536 <= 0
 c187: 4 x37 + 4 x87 + 4 x137 + 4 x187 + 4 x237 + 4 x287 + 4 x337 + 4 x387
       + 4 x437 + 4 x487 - 5 x537 <= 0
 c188: 4 x38 + 4 x88 + 4 x138 + 4 x188 + 4 x238 + 4 x288 + 4 x338 + 4 x388
       + 4 x438 + 4 x488 - 5 x538 <= 0
 c189: 4 x39 + 4 x89 + 4 x139 + 4 x189 + 4 x239 + 4 x289 + 4 x339 + 4 x389
       + 4 x439 + 4 x489 - 5 x539 <= 0
 c190: 4 x40 + 4 x90 + 4 x140 + 4 x190 + 4 x240 + 4 x290 + 4 x340 + 4 x390
       + 4 x440 + 4 x490 - 5 x540 <= 0
 c191: 4 x41 + 4 x91 + 4 x141 + 4 x191 + 4 x241 + 4 x291 + 4 x341 + 4 x391
       + 4 x441 + 4 x491 - 5 x541 <= 0
 c192: 4 x42 + 4 x92 + 4 x142 + 4 x192 + 4 x242 + 4 x292 + 4 x342 + 4 x392
       + 4 x442 + 4 x492 - 5 x542 <= 0
 c193: 4 x43 + 4 x93 + 4 x143 + 4 x193 + 4 x243 + 4 x293 + 4 x343 + 4 x393
       + 4 x443 + 4 x493 - 5 x543 <= 0
 c194: 4 x44 + 4 x94 + 4 x144 + 4 x194 + 4 x244 + 4 x294 + 4 x344 + 4 x394
       + 4 x444 + 4 x494 - 5 x544 <= 0
 c195: 4 x45 + 4 x95 + 4 x145 + 4 x195 + 4 x245 + 4 x295 + 4 x345 + 4 x395
       + 4 x445 + 4 x495 - 5 x545 <= 0
 c196: 4 x46 + 4 x96 + 4 x146 + 4 x196 + 4 x246 + 4 x296 + 4 x346 + 4 x396
       + 4 x446 + 4 x496 - 5 x546 <= 0
 c197: 4 x47 + 4 x97 + 4 x147 + 4 x197 + 4 x247 + 4 x297 + 4 x347 + 4 x397
       + 4 x447 + 4 x497 - 5 x547 <= 0
 c198: 4 x48 + 4 x98 + 4 x148 + 4 x198 + 4 x248 + 4 x298 + 4 x348 + 4 x398
       + 4 x448 + 4 x498 - 5 x548 <= 0
 c199: 4 x49 + 4 x99 + 4 x149 + 4 x199 + 4 x249 + 4 x299 + 4 x349 + 4 x399
       + 4 x449 + 4 x499 - 5 x549 <= 0
 c200: 4 x50 + 4 x100 + 4 x150 + 4 x200 + 4 x250 + 4 x300 + 4 x350 + 4 x400
       + 4 x450 + 4 x500 - 5 x550 <= 0
Bounds
 0 <= x1 <= 1
 0 <= x2 <= 1
 0 <= x3 <= 1
 0 <= x4 <= 1
 0 <= x5 <= 1
 0 <= x6 <= 1
 0 <= x7 <= 1
 0 <= x8 <= 1
 0 <= x9 <= 1
 0 <= x10 <= 1
 0 <= x11 <= 1
 0 <= x12 <= 1
 0 <= x13 <= 1
 0 <= x14 <= 1
 0 <= x15 <= 1
 0 <= x16 <= 1
 0 <= x17 <= 1
 0 <= x18 <= 1
 0 <= x19 <= 1
 0 <= x20 <= 1
 0 <= x21 <= 1
 0 <= x22 <= 1
 0 <= x23 <= 1
 0 <= x24 <= 1
 0 <= x25 <= 1
 0 <= x26 <= 1
 0 <= x27 <= 1
 0 <= x28 <= 1
 0 <= x29 <= 1
 0 <= x30 <= 1
 0 <= x31 <= 1
 0 <= x32 <= 1
 0 <= x33 <= 1
 0 <= x34 <= 1
 0 <= x35 <= 1
 0 <= x36 <= 1
 0 <= x37 <= 1
 0 <= x38 <= 1
 0 <= x39 <= 1
 0 <= x40 <= 1
 0 <= x41 <= 1
 0 <= x42 <= 1
 0 <= x43 <= 1
 0 <= x44 <= 1
 0 <= x45 <= 1
 0 <= x46 <= 1
 0 <= x47 <= 1
 0 <= x48 <= 1
 0 <= x49 <= 1
 0 <= x50 <= 1
 0 <= x51 <= 1
 0 <= x52 <= 1
 0 <= x53 <= 1
 0 <= x54 <= 1
 0 <= x55 <= 1
 0 <= x56 <= 1
 0 <= x57 <= 1
 0 <= x58 <= 1
 0 <= x59 <= 1
 0 <= x60 <= 1
 0 <= x61 <= 1
 0 <= x62 <= 1
 0 <= x63 <= 1
 0 <= x64 <= 1
 0 <= x65 <= 1
 0 <= x66 <= 1
 0 <= x67 <= 1
 0 <= x68 <= 1
 0 <= x69 <= 1
 0 <= x70 <= 1
 0 <= x71 <= 1
 0 <= x72 <= 1
 0 <= x73 <= 1
 0 <= x74 <= 1
 0 <= x75 <= 1
 0 <= x76 <= 1
 0 <= x77 <= 1
 0 <= x78 <= 1
 0 <= x79 <= 1
 0 <= x80 <= 1
 0 <= x81 <= 1
 0 <= x82 <= 1
 0 <= x83 <= 1
 0 <= x84 <= 1
 0 <= x85 <= 1
 0 <= x86 <= 1
 0 <= x87 <= 1
 0 <= x88 <= 1
 0 <= x89 <= 1
 0 <= x90 <= 1
 0 <= x91 <= 1
 0 <= x92 <= 1
 0 <= x93 <= 1
 0 <= x94 <= 1
 0 <= x95 <= 1
 0 <= x96 <= 1
 0 <= x97 <= 1
 0 <= x98 <= 1
 0 <= x99 <= 1
 0 <= x100 <= 1
 0 <= x101 <= 1
 0 <= x102 <= 1
 0 <= x103 <= 1
 0 <= x104 <= 1
 0 <= x105 <= 1
 0 <= x106 <= 1
 0 <= x107 <= 1
 0 <= x108 <= 1
 0 <= x109 <= 1
 0 <= x110 <= 1
 0 <= x111 <= 1
 0 <= x112 <= 1
 0 <= x113 <= 1
 0 <= x114 <= 1
 0 <= x115 <= 1
 0 <= x116 <= 1
 0 <= x117 <= 1
 0 <= x118 <= 1
 0 <= x119 <= 1
 0 <= x120 <= 1
 0 <= x121 <= 1
 0 <= x122 <= 1
 0 <= x123 <= 1
 0 <= x124 <= 1
 0 <= x125 <= 1
 0 <= x126 <= 1
 0 <= x127 <= 1
 0 <= x128 <= 1
 0 <= x129 <= 1
 0 <= x130 <= 1
 0 <= x131 <= 1
 0 <= x132 <= 1
 0 <= x133 <= 1
 0 <= x134 <= 1
 0 <= x135 <= 1
 0 <= x136 <= 1
 0 <= x137 <= 1
 0 <= x138 <= 1
 0 <= x139 <= 1
 0 <= x140 <= 1
 0 <= x141 <= 1
 0 <= x142 <= 1
 0 <= x143 <= 1
 0 <= x144 <= 1
 0 <= x145 <= 1
 0 <= x146 <= 1
 0 <= x147 <= 1
 0 <= x148 <= 1
 0 <= x149 <= 1
 0 <= x150 <= 1
 0 <= x151 <= 1
 0 <= x152 <= 1
 0 <= x153 <= 1
 0 <= x154 <= 1
 0 <= x155 <= 1
 0 <= x156 <= 1
 0 <= x157 <= 1
 0 <= x158 <= 1
 0 <= x159 <= 1
 0 <= x160 <= 1
 0 <= x161 <= 1
 0 <= x162 <= 1
 0 <= x163 <= 1
 0 <= x164 <= 1
 0 <= x165 <= 1
 0 <= x166 <= 1
 0 <= x167 <= 1
 0 <= x168 <= 1
 0 <= x169 <= 1
 0 <= x170 <= 1
 0 <= x171 <= 1
 0 <= x172 <= 1
 0 <= x173 <= 1
 0 <= x174 <= 1
 0 <= x175 <= 1
 0 <= x176 <= 1
 0 <= x177 <= 1
 0 <= x178 <= 1
 0 <= x179 <= 1
 0 <= x180 <= 1
 0 <= x181 <= 1
 0 <= x182 <= 1
 0 <= x183 <= 1
 0 <= x184 <= 1
 0 <= x185 <= 1
 0 <= x186 <= 1
 0 <= x187 <= 1
 0 <= x188 <= 1
 0 <= x189 <= 1
 0 <= x190 <= 1
 0 <= x191 <= 1
 0 <= x192 <= 1
 0 <= x193 <= 1
 0 <= x194 <= 1
 0 <= x195 <= 1
 0 <= x196 <= 1
 0 <= x197 <= 1
 0 <= x198 <= 1
 0 <= x199 <= 1
 0 <= x200 <= 1
 0 <= x201 <= 1
 0 <= x202 <= 1
 0 <= x203 <= 1
 0 <= x204 <= 1
 0 <= x205 <= 1
 0 <= x206 <= 1
 0 <= x207 <= 1
 0 <= x208 <= 1
 0 <= x209 <= 1
 0 <= x210 <= 1
 0 <= x211 <= 1
 0 <= x212 <= 1
 0 <= x213 <= 1
 0 <= x214 <= 1
 0 <= x215 <= 1
 0 <= x216 <= 1
 0 <= x217 <= 1
 0 <= x218 <= 1
 0 <= x219 <= 1
 0 <= x220 <= 1
 0 <= x221 <= 1
 0 <= x222 <= 1
 0 <= x223 <= 1
 0 <= x224 <= 1
 0 <= x225 <= 1
 0 <= x226 <= 1
 0 <= x227 <= 1
 0 <= x228 <= 1
 0 <= x229 <= 1
 0 <= x230 <= 1
 0 <= x231 <= 1
 0 <= x232 <= 1
 0 <= x233 <= 1
 0 <= x234 <= 1
 0 <= x235 <= 1
 0 <= x236 <= 1
 0 <= x237 <= 1
 0 <= x238 <= 1
 0 <= x239 <= 1
 0 <= x240 <= 1
 0 <= x241 <= 1
 0 <= x242 <= 1
 0 <= x243 <= 1
 0 <= x244 <= 1
 0 <= x245 <= 1
 0 <= x246 <= 1
 0 <= x247 <= 1
 0 <= x248 <= 1
 0 <= x249 <= 1
 0 <= x250 <= 1
 0 <= x251 <= 1
 0 <= x252 <= 1
 0 <= x253 <= 1
 0 <= x254 <= 1
 0 <= x255 <= 1
 0 <= x256 <= 1
 0 <= x257 <= 1
 0 <= x258 <= 1
 0 <= x259 <= 1
 0 <= x260 <= 1
 0 <= x261 <= 1
 0 <= x262 <= 1
 0 <= x263 <= 1
 0 <= x264 <= 1
 0 <= x265 <= 1
 0 <= x266 <= 1
 0 <= x267 <= 1
 0 <= x268 <= 1
 0 <= x269 <= 1
 0 <= x270 <= 1
 0 <= x271 <= 1
 0 <= x272 <= 1
 0 <= x273 <= 1
 0 <= x274 <= 1
 0 <= x275 <= 1
 0 <= x276 <= 1
 0 <= x277 <= 1
 0 <= x278 <= 1
 0 <= x279 <= 1
 0 <= x280 <= 1
 0 <= x281 <= 1
 0 <= x282 <= 1
 0 <= x283 <= 1
 0 <= x284 <= 1
 0 <= x285 <= 1
 0 <= x286 <= 1
 0 <= x287 <= 1
 0 <= x288 <= 1
 0 <= x289 <= 1
 0 <= x290 <= 1
 0 <= x291 <= 1
 0 <= x292 <= 1
 0 <= x293 <= 1
 0 <= x294 <= 1
 0 <= x295 <= 1
 0 <= x296 <= 1
 0 <= x297 <= 1
 0 <= x298 <= 1
 0 <= x299 <= 1
 0 <= x300 <= 1
 0 <= x301 <= 1
 0 <= x302 <= 1
 0 <= x303 <= 1
 0 <= x304 <= 1
 0 <= x305 <= 1
 0 <= x306 <= 1
 0 <= x307 <= 1
 0 <= x308 <= 1
 0 <= x309 <= 1
 0 <= x310 <= 1
 0 <= x311 <= 1
 0 <= x312 <= 1
 0 <= x313 <= 1
 0 <= x314 <= 1
 0 <= x315 <= 1
 0 <= x316 <= 1
 0 <= x317 <= 1
 0 <= x318 <= 1
 0 <= x319 <= 1
 0 <= x320 <= 1
 0 <= x321 <= 1
 0 <= x322 <= 1
 0 <= x323 <= 1
 0 <= x324 <= 1
 0 <= x325 <= 1
 0 <= x326 <= 1
 0 <= x327 <= 1
 0 <= x328 <= 1
 0 <= x329 <= 1
 0 <= x330 <= 1
 0 <= x331 <= 1
 0 <= x332 <= 1
 0 <= x333 <= 1
 0 <= x334 <= 1
 0 <= x335 <= 1
 0 <= x336 <= 1
 0 <= x337 <= 1
 0 <= x338 <= 1
 0 <= x339 <= 1
 0 <= x340 <= 1
 0 <= x341 <= 1
 0 <= x342 <= 1
 0 <= x343 <= 1
 0 <= x344 <= 1
 0 <= x345 <= 1
 0 <= x346 <= 1
 0 <= x347 <= 1
 0 <= x348 <= 1
 0 <= x349 <= 1
 0 <= x350 <= 1
 0 <= x351 <= 1
 0 <= x352 <= 1
 0 <= x353 <= 1
 0 <= x354 <= 1
 0 <= x355 <= 1
 0 <= x356 <= 1
 0 <= x357 <= 1
 0 <= x358 <= 1
 0 <= x359 <= 1
 0 <= x360 <= 1
 0 <= x361 <= 1
 0 <= x362 <= 1
 0 <= x363 <= 1
 0 <= x364 <= 1
 0 <= x365 <= 1
 0 <= x366 <= 1
 0 <= x367 <= 1
 0 <= x368 <= 1
 0 <= x369 <= 1
 0 <= x370 <= 1
 0 <= x371 <= 1
 0 <= x372 <= 1
 0 <= x373 <= 1
 0 <= x374 <= 1
 0 <= x375 <= 1
 0 <= x376 <= 1
 0 <= x377 <= 1
 0 <= x378 <= 1
 0 <= x379 <= 1
 0 <= x380 <= 1
 0 <= x381 <= 1
 0 <= x382 <= 1
 0 <= x383 <= 1
 0 <= x384 <= 1
 0 <= x385 <= 1
 0 <= x386 <= 1
 0 <= x387 <= 1
 0 <= x388 <= 1
 0 <= x389 <= 1
 0 <= x390 <= 1
 0 <= x391 <= 1
 0 <= x392 <= 1
 0 <= x393 <= 1
 0 <= x394 <= 1
 0 <= x395 <= 1
 0 <= x396 <= 1
 0 <= x397 <= 1
 0 <= x398 <= 1
 0 <= x399 <= 1
 0 <= x400 <= 1
 0 <= x401 <= 1
 0 <= x402 <= 1
 0 <= x403 <= 1
 0 <= x404 <= 1
 0 <= x405 <= 1
 0 <= x406 <= 1
 0 <= x407 <= 1
 0 <= x408 <= 1
 0 <= x409 <= 1
 0 <= x410 <= 1
 0 <= x411 <= 1
 0 <= x412 <= 1
 0 <= x413 <= 1
 0 <= x414 <= 1
 0 <= x415 <= 1
 0 <= x416 <= 1
 0 <= x417 <= 1
 0 <= x418 <= 1
 0 <= x419 <= 1
 0 <= x420 <= 1
 0 <= x421 <= 1
 0 <= x422 <= 1
 0 <= x423 <= 1
 0 <= x424 <= 1
 0 <= x425 <= 1
 0 <= x426 <= 1
 0 <= x427 <= 1
 0 <= x428 <= 1
 0 <= x429 <= 1
 0 <= x430 <= 1
 0 <= x431 <= 1
 0 <= x432 <= 1
 0 <= x433 <= 1
 0 <= x434 <= 1
 0 <= x435 <= 1
 0 <= x436 <= 1
 0 <= x437 <= 1
 0 <= x438 <= 1
 0 <= x439 <= 1
 0 <= x440 <= 1
 0 <= x441 <= 1
 0 <= x442 <= 1
 0 <= x443 <= 1
 0 <= x444 <= 1
 0 <= x445 <= 1
 0 <= x446 <= 1
 0 <= x447 <= 1
 0 <= x448 <= 1
 0 <= x449 <= 1
 0 <= x450 <= 1
 0 <= x451 <= 1
 0 <= x452 <= 1
 0 <= x453 <= 1
 0 <= x454 <= 1
 0 <= x455 <= 1
 0 <= x456 <= 1
 0 <= x457 <= 1
 0 <= x458 <= 1
 0 <= x459 <= 1
 0 <= x460 <= 1
 0 <= x461 <= 1
 0 <= x462 <= 1
 0 <= x463 <= 1
 0 <= x464 <= 1
 0 <= x465 <= 1
 0 <= x466 <= 1
 0 <= x467 <= 1
 0 <= x468 <= 1
 0 <= x469 <= 1
 0 <= x470 <= 1
 0 <= x471 <= 1
 0 <= x472 <= 1
 0 <= x473 <= 1
 0 <= x474 <= 1
 0 <= x475 <= 1
 0 <= x476 <= 1
 0 <= x477 <= 1
 0 <= x478 <= 1
 0 <= x479 <= 1
 0 <= x480 <= 1
 0 <= x481 <= 1
 0 <= x482 <= 1
 0 <= x483 <= 1
 0 <= x484 <= 1
 0 <= x485 <= 1
 0 <= x486 <= 1
 0 <= x487 <= 1
 0 <= x488 <= 1
 0 <= x489 <= 1
 0 <= x490 <= 1
 0 <= x491 <= 1
 0 <= x492 <= 1
 0 <= x493 <= 1
 0 <= x494 <= 1
 0 <= x495 <= 1
 0 <= x496 <= 1
 0 <= x497 <= 1
 0 <= x498 <= 1
 0 <= x499 <= 1
 0 <= x500 <= 1
 0 <= x501 <= 1
 0 <= x502 <= 1
 0 <= x503 <= 1
 0 <= x504 <= 1
 0 <= x505 <= 1
 0 <= x506 <= 1
 0 <= x507 <= 1
 0 <= x508 <= 1
 0 <= x509 <= 1
 0 <= x510 <= 1
 0 <= x511 <= 1
 0 <= x512 <= 1
 0 <= x513 <= 1
 0 <= x514 <= 1
 0 <= x515 <= 1
 0 <= x516 <= 1
 0 <= x517 <= 1
 0 <= x518 <= 1
 0 <= x519 <= 1
 0 <= x520 <= 1
 0 <= x521 <= 1
 0 <= x522 <= 1
 0 <= x523 <= 1
 0 <= x524 <= 1
 0 <= x525 <= 1
 0 <= x526 <= 1
 0 <= x527 <= 1
 0 <= x528 <= 1
 0 <= x529 <= 1
 0 <= x530 <= 1
 0 <= x531 <= 1
 0 <= x532 <= 1
 0 <= x533 <= 1
 0 <= x534 <= 1
 0 <= x535 <= 1
 0 <= x536 <= 1
 0 <= x537 <= 1
 0 <= x538 <= 1
 0 <= x539 <= 1
 0 <= x540 <= 1
 0 <= x541 <= 1
 0 <= x542 <= 1
 0 <= x543 <= 1
 0 <= x544 <= 1
 0 <= x545 <= 1
 0 <= x546 <= 1
 0 <= x547 <= 1
 0 <= x548 <= 1
 0 <= x549 <= 1
 0 <= x550 <= 1
Binaries
 x501  x502  x503  x504  x505  x506  x507  x508  x509  x510  x511  x512  x513 
 x514  x515  x516  x517  x518  x519  x520  x521  x522  x523  x524  x525  x526 
 x527  x528  x529  x530  x531  x532  x533  x534  x535  x536  x537  x538  x539 
 x540  x541  x542  x543  x544  x545  x546  x547  x548  x549  x550 
End
